;; translated from ./ctigar/pldi08.c.vmt
;; original benchmark available at: https://es-static.fbk.eu/people/griggio/ic3ia/index.html
;; author: Alberto Griggio <griggio@fbk.eu>
(set-logic HORN)
(declare-fun state (Bool Bool Bool Bool Int Int) Bool)
(assert (forall ((|.s.0.next| Bool) (|.s.1.next| Bool) (|.s.2.next| Bool) (|.s.3.next| Bool) (|main.x.next| Int) (|main.x| Int) (|main.y.next| Int) (|main.y| Int) (|.s.3| Bool) (|.s.2| Bool) (|.s.0| Bool) (|.s.1| Bool)) (=> (let ((.def_17 (not .s.3)))
(let ((.def_14 (not .s.2)))
(let ((.def_10 (not .s.1)))
(let ((.def_12 (and .def_10 .s.0)))
(let ((.def_15 (and .def_12 .def_14)))
(let ((.def_18 (and .def_15 .def_17)))
.def_18)))))) (state |.s.1| |.s.0| |.s.2| |.s.3| |main.x| |main.y|))))
(assert (forall ((|.s.0.next| Bool) (|.s.1.next| Bool) (|.s.2.next| Bool) (|.s.3.next| Bool) (|main.x.next| Int) (|main.x| Int) (|main.y.next| Int) (|main.y| Int) (|.s.3| Bool) (|.s.2| Bool) (|.s.0| Bool) (|.s.1| Bool)) (=> (and (state |.s.1| |.s.0| |.s.2| |.s.3| |main.x| |main.y|) (let ((.def_39 (not .s.0)))
(let ((.def_10 (not .s.1)))
(let ((.def_40 (and .def_10 .def_39)))
(let ((.def_14 (not .s.2)))
(let ((.def_41 (and .def_14 .def_40)))
(let ((.def_17 (not .s.3)))
(let ((.def_138 (and .def_17 .def_41)))
(let ((.def_139 (not .def_138)))
(let ((.def_45 (not .s.0.next)))
(let ((.def_22 (not .s.1.next)))
(let ((.def_46 (and .def_22 .def_45)))
(let ((.def_26 (not .s.2.next)))
(let ((.def_47 (and .def_26 .def_46)))
(let ((.def_44 (not .s.3.next)))
(let ((.def_48 (and .def_44 .def_47)))
(let ((.def_32 (= main.x main.x.next)))
(let ((.def_49 (and .def_32 .def_48)))
(let ((.def_36 (= main.y main.y.next)))
(let ((.def_50 (and .def_36 .def_49)))
(let ((.def_140 (or .def_50 .def_139)))
(let ((.def_134 (= main.x.next (- 50))))
(let ((.def_80 (and .s.1.next .def_45)))
(let ((.def_81 (and .def_26 .def_80)))
(let ((.def_82 (and .def_44 .def_81)))
(let ((.def_135 (and .def_82 .def_134)))
(let ((.def_136 (and .def_36 .def_135)))
(let ((.def_12 (and .def_10 .s.0)))
(let ((.def_15 (and .def_12 .def_14)))
(let ((.def_18 (and .def_15 .def_17)))
(let ((.def_131 (not .def_18)))
(let ((.def_137 (or .def_131 .def_136)))
(let ((.def_141 (and .def_137 .def_140)))
(let ((.def_71 (and .s.1.next .s.0.next)))
(let ((.def_126 (and .def_26 .def_71)))
(let ((.def_127 (and .def_44 .def_126)))
(let ((.def_128 (and .def_32 .def_127)))
(let ((.def_129 (and .def_36 .def_128)))
(let ((.def_115 (<= 0 main.x)))
(let ((.def_123 (not .def_115)))
(let ((.def_60 (and .s.1 .def_39)))
(let ((.def_113 (and .def_14 .def_60)))
(let ((.def_114 (and .def_17 .def_113)))
(let ((.def_124 (and .def_114 .def_123)))
(let ((.def_125 (not .def_124)))
(let ((.def_130 (or .def_125 .def_129)))
(let ((.def_142 (and .def_130 .def_141)))
(let ((.def_118 (and .s.2.next .def_80)))
(let ((.def_119 (and .def_44 .def_118)))
(let ((.def_120 (and .def_32 .def_119)))
(let ((.def_121 (and .def_36 .def_120)))
(let ((.def_116 (and .def_114 .def_115)))
(let ((.def_117 (not .def_116)))
(let ((.def_122 (or .def_117 .def_121)))
(let ((.def_143 (and .def_122 .def_142)))
(let ((.def_108 (and .s.2.next .def_46)))
(let ((.def_109 (and .def_44 .def_108)))
(let ((.def_102 (* (- 1) main.x.next)))
(let ((.def_105 (+ .def_102 main.y)))
(let ((.def_106 (+ main.x .def_105)))
(let ((.def_107 (= .def_106 0)))
(let ((.def_110 (and .def_107 .def_109)))
(let ((.def_111 (and .def_36 .def_110)))
(let ((.def_52 (and .s.1 .s.0)))
(let ((.def_99 (and .def_14 .def_52)))
(let ((.def_100 (and .def_17 .def_99)))
(let ((.def_101 (not .def_100)))
(let ((.def_112 (or .def_101 .def_111)))
(let ((.def_144 (and .def_112 .def_143)))
(let ((.def_24 (and .def_22 .s.0.next)))
(let ((.def_94 (and .def_24 .s.2.next)))
(let ((.def_95 (and .def_44 .def_94)))
(let ((.def_91 (* (- 1) main.y.next)))
(let ((.def_92 (+ main.y .def_91)))
(let ((.def_93 (= .def_92 (- 1))))
(let ((.def_96 (and .def_93 .def_95)))
(let ((.def_97 (and .def_32 .def_96)))
(let ((.def_86 (and .s.2 .def_40)))
(let ((.def_87 (and .def_17 .def_86)))
(let ((.def_88 (not .def_87)))
(let ((.def_98 (or .def_88 .def_97)))
(let ((.def_145 (and .def_98 .def_144)))
(let ((.def_83 (and .def_32 .def_82)))
(let ((.def_84 (and .def_36 .def_83)))
(let ((.def_77 (and .def_12 .s.2)))
(let ((.def_78 (and .def_17 .def_77)))
(let ((.def_79 (not .def_78)))
(let ((.def_85 (or .def_79 .def_84)))
(let ((.def_146 (and .def_85 .def_145)))
(let ((.def_72 (and .s.2.next .def_71)))
(let ((.def_73 (and .def_44 .def_72)))
(let ((.def_74 (and .def_32 .def_73)))
(let ((.def_75 (and .def_36 .def_74)))
(let ((.def_64 (<= 0 main.y)))
(let ((.def_61 (and .s.2 .def_60)))
(let ((.def_62 (and .def_17 .def_61)))
(let ((.def_69 (and .def_62 .def_64)))
(let ((.def_70 (not .def_69)))
(let ((.def_76 (or .def_70 .def_75)))
(let ((.def_147 (and .def_76 .def_146)))
(let ((.def_65 (not .def_64)))
(let ((.def_66 (and .def_62 .def_65)))
(let ((.def_67 (not .def_66)))
(let ((.def_27 (and .def_24 .def_26)))
(let ((.def_29 (and .def_27 .s.3.next)))
(let ((.def_33 (and .def_29 .def_32)))
(let ((.def_37 (and .def_33 .def_36)))
(let ((.def_68 (or .def_37 .def_67)))
(let ((.def_148 (and .def_68 .def_147)))
(let ((.def_56 (and .s.3.next .def_47)))
(let ((.def_57 (and .def_32 .def_56)))
(let ((.def_58 (and .def_36 .def_57)))
(let ((.def_53 (and .s.2 .def_52)))
(let ((.def_54 (and .def_17 .def_53)))
(let ((.def_55 (not .def_54)))
(let ((.def_59 (or .def_55 .def_58)))
(let ((.def_149 (and .def_59 .def_148)))
(let ((.def_42 (and .s.3 .def_41)))
(let ((.def_43 (not .def_42)))
(let ((.def_51 (or .def_43 .def_50)))
(let ((.def_150 (and .def_51 .def_149)))
(let ((.def_19 (and .def_15 .s.3)))
(let ((.def_20 (not .def_19)))
(let ((.def_38 (or .def_20 .def_37)))
(let ((.def_151 (and .def_38 .def_150)))
.def_151))))))))))))))))))))))))))))))))))))))))))))))))))))))))))))))))))))))))))))))))))))))))))))))))))))))))))))))))))))))))))))) (state |.s.1.next| |.s.0.next| |.s.2.next| |.s.3.next| |main.x.next| |main.y.next|))))
(assert (forall ((|.s.0.next| Bool) (|.s.1.next| Bool) (|.s.2.next| Bool) (|.s.3.next| Bool) (|main.x.next| Int) (|main.x| Int) (|main.y.next| Int) (|main.y| Int) (|.s.3| Bool) (|.s.2| Bool) (|.s.0| Bool) (|.s.1| Bool)) (=> (state |.s.1| |.s.0| |.s.2| |.s.3| |main.x| |main.y|) (let ((.def_14 (not .s.2)))
(let ((.def_10 (not .s.1)))
(let ((.def_12 (and .def_10 .s.0)))
(let ((.def_15 (and .def_12 .def_14)))
(let ((.def_19 (and .def_15 .s.3)))
(let ((.def_20 (not .def_19)))
.def_20)))))))))
(check-sat)
